certificates/rado_a7_c58_N13.cnf
c Rad2 upper bound instance: x1 + 7*x2 - x3 = 58, interval [1,13]
p cnf 13 48
1 6 9 0
-1 -6 -9 0
1 10 13 0
-1 -10 -13 0
2 7 9 0
-2 -7 -9 0
1 3 8 0
-1 -3 -8 0
3 8 9 0
-3 -8 -9 0
2 4 8 0
-2 -4 -8 0
4 9 0
-4 -9 0
3 5 8 0
-3 -5 -8 0
5 9 10 0
-5 -9 -10 0
4 6 8 0
-4 -6 -8 0
6 9 11 0
-6 -9 -11 0
5 7 8 0
-5 -7 -8 0
7 9 12 0
-7 -9 -12 0
6 8 0
-6 -8 0
8 9 13 0
-8 -9 -13 0
7 8 9 0
-7 -8 -9 0
1 7 10 0
-1 -7 -10 0
8 10 0
-8 -10 0
2 7 11 0
-2 -7 -11 0
8 9 11 0
-8 -9 -11 0
3 7 12 0
-3 -7 -12 0
8 10 12 0
-8 -10 -12 0
4 7 13 0
-4 -7 -13 0
8 11 13 0
-8 -11 -13 0
