certificates/rado_a7_c58_N13.drat
-11 -13 0
d -11 -8 -13 0
9 11 0
-13 0
-8 -9 0
d -7 -8 -9 0
11 0
-9 0
4 0
8 0
-2 0
-6 0
-10 0
7 0
1 0
5 0
0
